15
0 44 54 30 52 35 59 49 52 10 53 48 17 30 36 
44 0 22 36 15 42 30 34 31 36 10 18 26 28 55 
54 22 0 33 57 24 15 29 38 26 26 44 58 46 23 
30 36 33 0 49 57 52 27 51 51 45 50 12 19 44 
52 15 57 49 0 19 35 17 51 10 31 44 27 37 24 
35 42 24 57 19 0 12 45 45 47 56 12 26 33 23 
59 30 15 52 35 12 0 24 45 18 38 42 49 11 48 
49 34 29 27 17 45 24 0 28 17 22 45 50 23 41 
52 31 38 51 51 45 45 28 0 32 42 49 24 35 39 
10 36 26 51 10 47 18 17 32 0 24 52 28 43 38 
53 10 26 45 31 56 38 22 42 24 0 54 13 58 31 
48 18 44 50 44 12 42 45 49 52 54 0 56 25 55 
17 26 58 12 27 26 49 50 24 28 13 56 0 36 56 
30 28 46 19 37 33 11 23 35 43 58 25 36 0 36 
36 55 23 44 24 23 48 41 39 38 31 55 56 36 0 
